p cnf 7230 16
-1608 -2140 -2872 0
-1606 -2244 -2870 0
-389 -2264 -2868 0
-387 -2266 -2866 0
1608 -2873 0
1606 -2871 0
389 -2869 0
387 -2867 0
2872 2873 0
2870 2871 0
2868 2869 0
2866 2867 0
2140 -2873 0
2244 -2871 0
2264 -2869 0
2266 -2867 0
